sat
(:elim-unconstrained  19
 :max-memory          18.72
 :memory              18.72
 :num-allocs          57032
 :rlimit-count        17384
 :solve-eqs-elim-vars 49
 :solve-eqs-steps     49
 :time                0.01
 :total-time          0.07)
